
Gurobi 10.0.1 (linux64) logging started Mon May 29 05:21:44 2023

Set parameter LogFile to value "logFiles/N-1L-B/N-1L-13U-15F-23V-180D-relax/basic-05-29-2023, 05-21-H70-P50-O15.log"
Gurobi Optimizer version 10.0.1 build v10.0.1rc0 (linux64)

CPU model: Intel(R) Xeon(R) Gold 5115 CPU @ 2.40GHz, instruction set [SSE2|AVX|AVX2|AVX512]
Thread count: 20 physical cores, 40 logical processors, using up to 20 threads

Optimize a model with 80298 rows, 1108500 columns and 4877233 nonzeros
Model fingerprint: 0x8f38435a
Variable types: 401573 continuous, 706927 integer (706927 binary)
Coefficient statistics:
  Matrix range     [1e+00, 2e+05]
  Objective range  [4e+01, 3e+07]
  Bounds range     [1e+00, 1e+00]
  RHS range        [1e+00, 2e+06]

Loaded user MIP start with objective 1.2845e+09

Presolve removed 44682 rows and 25089 columns (presolve time = 5s) ...
Presolve removed 44695 rows and 25101 columns (presolve time = 10s) ...
Presolve removed 44704 rows and 25317 columns (presolve time = 15s) ...
Presolve removed 44667 rows and 25280 columns
Presolve time: 19.42s
Presolved: 35631 rows, 1083220 columns, 4452134 nonzeros
Variable types: 388863 continuous, 694357 integer (694357 binary)
Deterministic concurrent LP optimizer: primal simplex, dual simplex, and barrier
Showing barrier log only...

Root barrier log...

Ordering time: 1.28s

Barrier statistics:
 AA' NZ     : 2.404e+06
 Factor NZ  : 7.356e+06 (roughly 500 MB of memory)
 Factor Ops : 9.933e+09 (less than 1 second per iteration)
 Threads    : 18

                  Objective                Residual
Iter       Primal          Dual         Primal    Dual     Compl     Time
   0  -2.52922742e+16  4.88623989e+13  1.17e+09 4.77e+06  7.88e+11    28s
   1  -6.18100932e+15  5.65758926e+13  2.87e+08 1.77e+06  1.98e+11    28s
   2  -5.81817847e+14  4.55937059e+13  2.72e+07 1.07e+05  1.90e+10    29s
   3  -5.15691419e+13  2.65189839e+13  2.41e+06 1.68e-08  1.70e+09    29s
   4  -2.41347505e+13  1.27532077e+13  1.13e+06 1.48e-08  8.05e+08    30s
   5  -6.76522645e+12  1.11182216e+13  3.16e+05 1.16e-08  2.31e+08    30s
   6  -2.85908777e+12  9.62022283e+12  1.34e+05 1.01e-08  9.93e+07    30s
   7  -8.34436380e+11  8.65786807e+12  3.89e+04 1.13e-08  3.13e+07    31s
   8  -6.91765070e+11  6.79269052e+12  3.23e+04 9.95e-09  2.47e+07    31s
   9  -5.89256073e+11  5.29794353e+12  2.75e+04 1.30e-08  1.99e+07    32s
  10  -4.80451755e+11  4.34276701e+12  2.24e+04 1.02e-08  1.56e+07    32s
  11  -2.01706138e+11  3.37309014e+12  9.45e+03 9.90e-09  6.99e+06    32s
  12  -1.06342300e+11  1.98831544e+12  5.02e+03 1.22e-08  3.50e+06    33s
  13  -7.67361844e+10  1.15969404e+12  3.64e+03 1.43e-08  2.23e+06    33s
  14  -2.92592380e+10  4.52924154e+11  1.43e+03 1.68e-08  7.84e+05    34s
  15  -9.29854834e+09  2.32668975e+11  5.05e+02 1.56e-08  2.86e+05    34s
  16  -1.43073836e+09  1.03425266e+11  1.40e+02 1.64e-08  9.11e+04    35s
  17  -1.12856253e+09  6.63931268e+10  1.26e+02 1.75e-07  6.81e+04    35s
  18   2.68481867e+08  5.19876136e+10  6.05e+01 2.06e-07  4.14e+04    35s
  19   4.00093736e+08  4.33965449e+10  5.44e+01 2.03e-07  3.55e+04    36s
  20   4.95768142e+08  4.09040187e+10  5.00e+01 1.80e-07  3.30e+04    36s
  21   1.04539048e+09  3.22474063e+10  2.45e+01 2.56e-07  2.15e+04    37s
  22   1.11494473e+09  2.59907538e+10  2.13e+01 2.83e-07  1.77e+04    38s
  23   1.28432386e+09  2.09815027e+10  1.38e+01 2.22e-07  1.31e+04    38s
  24   1.34754210e+09  1.60802721e+10  1.10e+01 1.27e-07  1.01e+04    39s
  25   1.42359452e+09  1.22832700e+10  7.77e+00 1.86e-07  7.41e+03    40s
  26   1.48036680e+09  1.06864840e+10  5.39e+00 2.18e-07  5.94e+03    40s
  27   1.50775678e+09  7.10111887e+09  4.29e+00 3.00e-07  3.98e+03    41s
  28   1.52833418e+09  6.05211259e+09  3.48e+00 2.87e-07  3.23e+03    42s
  29   1.53694892e+09  6.04129120e+09  3.27e+00 2.77e-07  3.13e+03    42s
  30   1.55178324e+09  5.69661675e+09  3.04e+00 2.24e-07  2.89e+03    43s
  31   1.59145182e+09  5.33571720e+09  2.55e+00 2.70e-07  2.52e+03    44s
  32   1.66107662e+09  5.32685200e+09  1.63e+00 2.68e-07  2.19e+03    44s
  33   1.67726561e+09  4.09511386e+09  1.45e+00 2.95e-07  1.47e+03    45s
  34   1.69390491e+09  3.84798722e+09  1.28e+00 2.34e-07  1.29e+03    46s
  35   1.70018227e+09  3.59060332e+09  1.22e+00 2.32e-07  1.14e+03    46s
  36   1.71824380e+09  2.85362445e+09  1.05e+00 2.88e-07  6.93e+02    47s
  37   1.74048896e+09  2.62991523e+09  8.71e-01 2.44e-07  5.31e+02    48s
  38   1.78306570e+09  2.39088483e+09  6.28e-01 2.73e-07  3.52e+02    48s
  39   1.82864858e+09  2.35876386e+09  4.39e-01 2.00e-07  2.93e+02    49s
  40   1.84483799e+09  2.31562324e+09  3.87e-01 2.93e-07  2.57e+02    50s
  41   1.85897274e+09  2.23428752e+09  3.43e-01 2.37e-07  2.04e+02    50s
  42   1.86177120e+09  2.20413313e+09  3.34e-01 2.36e-07  1.87e+02    51s
  43   1.87136132e+09  2.17554963e+09  3.06e-01 2.48e-07  1.65e+02    51s
  44   1.87848794e+09  2.14780179e+09  2.85e-01 2.46e-07  1.46e+02    52s
  45   1.88529480e+09  2.13948850e+09  2.66e-01 1.80e-07  1.37e+02    53s
  46   1.88892386e+09  2.12157871e+09  2.55e-01 2.09e-07  1.26e+02    53s
  47   1.90552121e+09  2.10190133e+09  2.10e-01 1.53e-07  1.04e+02    54s
  48   1.91406706e+09  2.08718061e+09  1.87e-01 2.16e-07  9.17e+01    55s
  49   1.91783123e+09  2.07629640e+09  1.78e-01 1.81e-07  8.39e+01    55s
  50   1.92279194e+09  2.06884384e+09  1.65e-01 1.90e-07  7.71e+01    56s
  51   1.92754457e+09  2.06048566e+09  1.54e-01 2.39e-07  7.01e+01    57s
  52   1.92997694e+09  2.05750987e+09  1.49e-01 2.33e-07  6.72e+01    57s
  53   1.93264070e+09  2.05303716e+09  1.42e-01 1.50e-07  6.34e+01    58s
  54   1.93812835e+09  2.04843050e+09  1.29e-01 3.09e-07  5.78e+01    58s
  55   1.94260186e+09  2.04266886e+09  1.18e-01 2.55e-07  5.23e+01    59s
  56   1.94703278e+09  2.03696389e+09  1.08e-01 2.37e-07  4.69e+01    60s
  57   1.94889676e+09  2.03179248e+09  1.04e-01 2.11e-07  4.32e+01    61s
  58   1.95782806e+09  2.02731820e+09  8.60e-02 2.57e-07  3.61e+01    61s
  59   1.96324379e+09  2.02507168e+09  7.57e-02 2.26e-07  3.20e+01    62s
  60   1.96905067e+09  2.02263212e+09  6.46e-02 1.88e-07  2.76e+01    62s
  61   1.97336430e+09  2.01896768e+09  5.65e-02 2.20e-07  2.35e+01    63s
  62   1.97894257e+09  2.01673926e+09  4.61e-02 1.81e-07  1.94e+01    64s
  63   1.98448453e+09  2.01390855e+09  3.62e-02 1.91e-07  1.51e+01    65s
  64   1.98898517e+09  2.01234307e+09  2.81e-02 1.97e-07  1.19e+01    65s
  65   1.99168413e+09  2.01159791e+09  2.33e-02 2.10e-07  1.01e+01    66s
  66   1.99524245e+09  2.00994415e+09  1.70e-02 2.11e-07  7.46e+00    67s
  67   1.99692330e+09  2.00936698e+09  1.42e-02 1.85e-07  6.30e+00    67s
  68   1.99793647e+09  2.00890382e+09  1.26e-02 2.43e-07  5.55e+00    68s
  69   1.99919482e+09  2.00816507e+09  1.05e-02 2.02e-07  4.55e+00    69s
  70   2.00024873e+09  2.00765911e+09  8.80e-03 1.22e-07  3.76e+00    69s
  71   2.00098195e+09  2.00730064e+09  7.64e-03 1.56e-07  3.21e+00    70s
  72   2.00175665e+09  2.00708665e+09  6.48e-03 1.70e-07  2.71e+00    70s
  73   2.00312367e+09  2.00681323e+09  4.36e-03 1.29e-07  1.87e+00    71s
  74   2.00366446e+09  2.00664917e+09  3.53e-03 1.43e-07  1.51e+00    72s
  75   2.00417293e+09  2.00651235e+09  2.75e-03 2.35e-07  1.18e+00    73s
  76   2.00467630e+09  2.00643303e+09  2.00e-03 1.70e-07  8.87e-01    73s
  77   2.00542010e+09  2.00612200e+09  9.05e-04 1.48e-07  3.58e-01    74s
  78   2.00572484e+09  2.00604159e+09  4.23e-04 1.30e-07  1.62e-01    75s
  79   2.00582943e+09  2.00603065e+09  2.64e-04 1.83e-07  1.03e-01    75s
  80   2.00590789e+09  2.00602627e+09  1.49e-04 1.73e-07  6.02e-02    76s
  81   2.00594691e+09  2.00602141e+09  8.96e-05 8.86e-08  3.77e-02    76s
  82   2.00595682e+09  2.00602009e+09  7.40e-05 1.53e-07  3.20e-02    77s
  83   2.00597182e+09  2.00601538e+09  5.19e-05 1.07e-07  2.20e-02    77s
  84   2.00598821e+09  2.00601102e+09  2.77e-05 1.53e-07  1.16e-02    77s
  85   2.00600231e+09  2.00600895e+09  7.61e-06 1.91e-07  3.34e-03    78s
  86   2.00600673e+09  2.00600805e+09  1.12e-06 2.45e-07  6.51e-04    78s
  87   2.00600713e+09  2.00600763e+09  5.93e-07 2.56e-07  2.52e-04    79s
  88   2.00600758e+09  2.00600760e+09  7.45e-08 2.14e-07  1.42e-05    79s
  89   2.00600760e+09  2.00600760e+09  1.80e-07 2.23e-07  1.38e-07    80s
  90   2.00600760e+09  2.00600760e+09  1.05e-09 2.39e-07  1.50e-10    80s

Barrier solved model in 90 iterations and 80.17 seconds (63.49 work units)
Optimal objective 2.00600760e+09


Root crossover log...

   30823 DPushes remaining with DInf 0.0000000e+00                80s
       0 DPushes remaining with DInf 0.0000000e+00                82s

     998 PPushes remaining with PInf 0.0000000e+00                82s
      13 PPushes remaining with PInf 2.9788108e-02                82s

  Push phase complete: Pinf 2.9788108e-02, Dinf 5.0281576e+03     82s


Root simplex log...

Iteration    Objective       Primal Inf.    Dual Inf.      Time
   31811    2.0060076e+09   1.856049e+01   0.000000e+00     82s
   31864    2.0060076e+09   0.000000e+00   0.000000e+00     83s
Concurrent spin time: 0.06s

Solved with barrier
   31931    2.0060076e+09   0.000000e+00   0.000000e+00     84s
Extra simplex iterations after uncrush: 67

Root relaxation: objective 2.006008e+09, 31931 iterations, 62.23 seconds (45.50 work units)
Total elapsed time = 85.13s

    Nodes    |    Current Node    |     Objective Bounds      |     Work
 Expl Unexpl |  Obj  Depth IntInf | Incumbent    BestBd   Gap | It/Node Time

     0     0 2.0060e+09    0  399 1.2845e+09 2.0060e+09  56.2%     -   93s
H    0     0                    1.977642e+09 2.0060e+09  1.43%     -  116s
H    0     0                    1.978019e+09 2.0060e+09  1.41%     -  125s
     0     0 2.0058e+09    0  428 1.9780e+09 2.0058e+09  1.41%     -  311s
H    0     0                    1.978639e+09 2.0058e+09  1.37%     -  335s
     0     0 2.0058e+09    0  424 1.9786e+09 2.0058e+09  1.37%     -  336s
     0     0 2.0058e+09    0  455 1.9786e+09 2.0058e+09  1.37%     -  444s
H    0     0                    1.979245e+09 2.0058e+09  1.34%     -  473s
     0     0 2.0058e+09    0  457 1.9792e+09 2.0058e+09  1.34%     -  489s
     0     0 2.0058e+09    0  452 1.9792e+09 2.0058e+09  1.34%     -  564s
H    0     0                    1.981023e+09 2.0058e+09  1.25%     -  600s
     0     0 2.0058e+09    0  454 1.9810e+09 2.0058e+09  1.25%     -  614s
     0     0 2.0058e+09    0  442 1.9810e+09 2.0058e+09  1.25%     -  705s
     0     0 2.0058e+09    0  453 1.9810e+09 2.0058e+09  1.25%     -  747s
     0     0 2.0058e+09    0  468 1.9810e+09 2.0058e+09  1.25%     -  830s
     0     0 2.0058e+09    0  462 1.9810e+09 2.0058e+09  1.25%     -  856s
     0     0 2.0058e+09    0  438 1.9810e+09 2.0058e+09  1.25%     -  890s
     0     0 2.0058e+09    0  481 1.9810e+09 2.0058e+09  1.25%     -  948s
     0     0 2.0057e+09    0  491 1.9810e+09 2.0057e+09  1.25%     - 1029s
H    0     0                    1.982961e+09 2.0057e+09  1.15%     - 1052s
     0     0 2.0057e+09    0  472 1.9830e+09 2.0057e+09  1.15%     - 1102s
     0     0 2.0057e+09    0  467 1.9830e+09 2.0057e+09  1.15%     - 1113s
     0     0 2.0057e+09    0  483 1.9830e+09 2.0057e+09  1.15%     - 1170s
H    0     0                    1.983091e+09 2.0057e+09  1.14%     - 1198s
     0     0 2.0057e+09    0  528 1.9831e+09 2.0057e+09  1.14%     - 1238s
     0     0 2.0057e+09    0  514 1.9831e+09 2.0057e+09  1.14%     - 1253s
     0     0 2.0057e+09    0  474 1.9831e+09 2.0057e+09  1.14%     - 1292s
     0     0 2.0057e+09    0  488 1.9831e+09 2.0057e+09  1.14%     - 1321s
     0     0 2.0057e+09    0  464 1.9831e+09 2.0057e+09  1.14%     - 1334s
     0     0 2.0057e+09    0  468 1.9831e+09 2.0057e+09  1.14%     - 1364s
     0     0 2.0057e+09    0  487 1.9831e+09 2.0057e+09  1.14%     - 1383s
     0     0 2.0057e+09    0  482 1.9831e+09 2.0057e+09  1.14%     - 1408s
     0     2 2.0057e+09    0  477 1.9831e+09 2.0057e+09  1.14%     - 1823s
     1     4 2.0057e+09    1  471 1.9831e+09 2.0057e+09  1.14%  7774 2034s
     2     4 2.0057e+09    1  440 1.9831e+09 2.0057e+09  1.14% 10856 2035s
     3     8 2.0057e+09    2  476 1.9831e+09 2.0057e+09  1.14%  7259 2097s
     7    16 2.0057e+09    3  507 1.9831e+09 2.0057e+09  1.14%  3837 2370s
    15    32 2.0057e+09    4  493 1.9831e+09 2.0057e+09  1.14%  4209 2885s
H   31    52                    1.984348e+09 2.0057e+09  1.08%  6032 10802s
H   32    52                    1.984527e+09 2.0057e+09  1.07% 20706 10804s

Cutting planes:
  Cover: 7
  Implied bound: 59
  Clique: 1
  MIR: 76
  StrongCG: 1
  Flow cover: 23
  Network: 3
  RLT: 91
  Relax-and-lift: 21

Explored 51 nodes (6846749 simplex iterations) in 10804.90 seconds (10060.21 work units)
Thread count was 20 (of 40 available processors)

Solution count 10: 1.98453e+09 1.98435e+09 1.98309e+09 ... 1.2845e+09

Time limit reached
Best objective 1.984527375164e+09, best bound 2.005735855242e+09, gap 1.0687%
Gurobi Optimizer version 10.0.1 build v10.0.1rc0 (linux64)

CPU model: Intel(R) Xeon(R) Gold 5115 CPU @ 2.40GHz, instruction set [SSE2|AVX|AVX2|AVX512]
Thread count: 20 physical cores, 40 logical processors, using up to 20 threads

Optimize a model with 125498 rows, 1621113 columns and 8848474 nonzeros
Model fingerprint: 0x88682dad
Variable types: 276841 continuous, 1344272 integer (1344272 binary)
Coefficient statistics:
  Matrix range     [1e+00, 2e+05]
  Objective range  [4e+01, 3e+07]
  Bounds range     [9e-13, 3e+05]
  RHS range        [1e+00, 2e+06]

User MIP start did not produce a new incumbent solution
User MIP start violates constraint flow[RIV,NGBON,134] by 1.000000000
Processed MIP start in 1.18 seconds (0.42 work units)

Presolve removed 101430 rows and 1029837 columns (presolve time = 5s) ...
Presolve removed 101457 rows and 1030018 columns (presolve time = 10s) ...
Presolve removed 101457 rows and 1030018 columns (presolve time = 17s) ...
Presolve removed 101798 rows and 1040781 columns
Presolve time: 19.52s
Presolved: 23700 rows, 580332 columns, 2399750 nonzeros
Variable types: 208169 continuous, 372163 integer (372161 binary)
Deterministic concurrent LP optimizer: primal simplex, dual simplex, and barrier
Showing barrier log only...

Root barrier log...

Ordering time: 0.71s

Barrier statistics:
 AA' NZ     : 1.345e+06
 Factor NZ  : 3.532e+06 (roughly 300 MB of memory)
 Factor Ops : 2.709e+09 (less than 1 second per iteration)
 Threads    : 17

                  Objective                Residual
Iter       Primal          Dual         Primal    Dual     Compl     Time
   0  -2.11180224e+15  4.81790459e+12  1.37e+08 6.60e+05  3.02e+10    29s
   1  -1.15645536e+15  5.42521059e+12  7.54e+07 8.17e+05  1.69e+10    30s
   2  -1.94435805e+14  5.27053977e+12  1.29e+07 5.17e+05  2.90e+09    30s
   3  -2.89872297e+13  3.73535415e+12  1.92e+06 4.84e+03  4.44e+08    30s
   4  -3.35656974e+12  1.93811080e+12  2.21e+05 2.59e+02  5.30e+07    31s
   5  -9.53537039e+11  1.29786589e+12  6.27e+04 2.24e+02  1.56e+07    31s
   6  -4.70779562e+11  9.62783819e+11  3.10e+04 5.15e+01  7.79e+06    31s
   7  -3.69093839e+11  9.32613828e+11  2.43e+04 4.98e+01  6.23e+06    31s
   8  -3.31874026e+11  7.99540237e+11  2.19e+04 4.23e+01  5.43e+06    31s
   9  -2.08857456e+11  5.73661444e+11  1.38e+04 1.54e+01  3.31e+06    32s
  10  -8.31649403e+10  3.96991453e+11  5.59e+03 3.52e+00  1.40e+06    32s
  11  -3.46797404e+10  2.28239702e+11  2.42e+03 3.85e+00  6.07e+05    32s
  12  -1.67577983e+10  1.28850269e+11  1.25e+03 4.13e-09  2.97e+05    32s
  13  -1.34648261e+09  5.11011498e+10  2.46e+02 4.66e-09  7.31e+04    33s
  14  -3.11449566e+08  4.38903266e+10  1.79e+02 4.66e-09  5.77e+04    33s
  15   1.13001896e+09  2.78015109e+10  8.53e+01 4.37e-09  3.17e+04    33s
  16   1.55330494e+09  2.07083569e+10  5.81e+01 1.57e-08  2.22e+04    33s
  17   2.09985894e+09  1.51708132e+10  2.33e+01 3.70e-08  1.35e+04    34s
  18   2.19832967e+09  1.39953193e+10  1.72e+01 2.48e-08  1.18e+04    34s
  19   2.25157292e+09  1.14887781e+10  1.43e+01 1.23e-08  9.41e+03    34s
  20   2.36305771e+09  8.98701028e+09  8.04e+00 1.58e-08  6.58e+03    34s
  21   2.39383477e+09  8.00438409e+09  6.46e+00 2.30e-08  5.60e+03    35s
  22   2.41002125e+09  6.99402663e+09  5.48e+00 3.07e-08  4.67e+03    35s
  23   2.42165006e+09  6.66108288e+09  4.87e+00 4.56e-08  4.35e+03    35s
  24   2.44481860e+09  5.78121630e+09  4.01e+00 5.12e-08  3.52e+03    36s
  25   2.47191144e+09  5.33609392e+09  3.29e+00 6.33e-08  3.04e+03    36s
  26   2.48152469e+09  4.96356689e+09  3.06e+00 7.17e-08  2.68e+03    36s
  27   2.49235323e+09  4.70028935e+09  2.93e+00 6.71e-08  2.39e+03    37s
  28   2.51382231e+09  4.55176654e+09  2.63e+00 6.33e-08  2.17e+03    37s
  29   2.53518569e+09  4.31449654e+09  2.11e+00 6.89e-08  1.88e+03    37s
  30   2.54441770e+09  4.11439819e+09  1.98e+00 7.54e-08  1.66e+03    38s
  31   2.55408324e+09  4.05786863e+09  1.84e+00 8.66e-08  1.58e+03    38s
  32   2.56179648e+09  4.01096241e+09  1.74e+00 9.03e-08  1.51e+03    38s
  33   2.58681929e+09  3.83537026e+09  1.35e+00 7.73e-08  1.27e+03    39s
  34   2.60645015e+09  3.54655704e+09  1.08e+00 7.08e-08  9.38e+02    39s
  35   2.63637631e+09  3.27295656e+09  7.11e-01 4.56e-08  6.18e+02    39s
  36   2.65339441e+09  3.11041592e+09  5.44e-01 3.26e-08  4.38e+02    39s
  37   2.68126999e+09  3.04103515e+09  3.90e-01 2.51e-08  3.37e+02    40s
  38   2.69297161e+09  3.02398595e+09  3.51e-01 2.42e-08  3.08e+02    40s
  39   2.69654477e+09  3.00638753e+09  3.39e-01 2.51e-08  2.88e+02    40s
  40   2.70064266e+09  2.99494418e+09  3.24e-01 2.05e-08  2.73e+02    41s
  41   2.70739972e+09  2.98035226e+09  3.01e-01 2.14e-08  2.52e+02    41s
  42   2.71574926e+09  2.96802354e+09  2.75e-01 2.05e-08  2.32e+02    41s
  43   2.71991293e+09  2.96106851e+09  2.62e-01 1.96e-08  2.21e+02    42s
  44   2.72750835e+09  2.94228210e+09  2.40e-01 1.96e-08  1.96e+02    42s
  45   2.73270721e+09  2.93158957e+09  2.25e-01 1.77e-08  1.81e+02    42s
  46   2.73791331e+09  2.91736373e+09  2.08e-01 1.30e-08  1.63e+02    43s
  47   2.74397855e+09  2.90707970e+09  1.89e-01 1.30e-08  1.48e+02    43s
  48   2.74817210e+09  2.90128167e+09  1.76e-01 1.21e-08  1.38e+02    43s
  49   2.75125037e+09  2.89405806e+09  1.65e-01 1.16e-08  1.28e+02    43s
  50   2.75451044e+09  2.88736587e+09  1.56e-01 1.21e-08  1.19e+02    44s
  51   2.75961227e+09  2.88119493e+09  1.43e-01 1.30e-08  1.09e+02    44s
  52   2.76175944e+09  2.87583360e+09  1.39e-01 1.40e-08  1.02e+02    44s
  53   2.76514240e+09  2.86954947e+09  1.38e-01 1.30e-08  9.30e+01    45s
  54   2.76903248e+09  2.86348805e+09  1.36e-01 1.12e-08  8.39e+01    45s
  55   2.77252672e+09  2.85643867e+09  1.30e-01 1.12e-08  7.43e+01    45s
  56   2.77511373e+09  2.85297035e+09  1.21e-01 1.16e-08  6.88e+01    46s
  57   2.77821584e+09  2.84815812e+09  1.11e-01 1.21e-08  6.16e+01    46s
  58   2.78154143e+09  2.84508318e+09  9.87e-02 1.16e-08  5.59e+01    46s
  59   2.78355257e+09  2.84360198e+09  9.11e-02 1.02e-08  5.28e+01    47s
  60   2.78630574e+09  2.84194397e+09  7.98e-02 9.31e-09  4.88e+01    47s
  61   2.78939770e+09  2.83871764e+09  6.75e-02 8.38e-09  4.32e+01    47s
  62   2.79208836e+09  2.83349957e+09  5.75e-02 7.45e-09  3.62e+01    48s
  63   2.79353762e+09  2.83262051e+09  5.30e-02 8.38e-09  3.42e+01    48s
  64   2.79784717e+09  2.83131486e+09  4.43e-02 1.02e-08  2.92e+01    48s
  65   2.80043716e+09  2.82952368e+09  4.56e-02 9.78e-09  2.53e+01    49s
  66   2.80179020e+09  2.82762222e+09  4.42e-02 7.92e-09  2.25e+01    49s
  67   2.80289544e+09  2.82699388e+09  4.25e-02 6.98e-09  2.10e+01    49s
  68   2.80371168e+09  2.82635670e+09  4.10e-02 6.52e-09  1.97e+01    49s
  69   2.80459852e+09  2.82593147e+09  3.92e-02 6.52e-09  1.85e+01    50s
  70   2.80527144e+09  2.82528165e+09  3.76e-02 7.45e-09  1.74e+01    50s
  71   2.80585975e+09  2.82484533e+09  3.58e-02 8.38e-09  1.65e+01    50s
  72   2.80634608e+09  2.82447792e+09  3.42e-02 8.38e-09  1.57e+01    51s
  73   2.80694652e+09  2.82417249e+09  3.20e-02 7.92e-09  1.49e+01    51s
  74   2.80756436e+09  2.82392043e+09  3.01e-02 1.02e-08  1.42e+01    51s
  75   2.80823306e+09  2.82341385e+09  2.85e-02 8.85e-09  1.32e+01    52s
  76   2.80863510e+09  2.82302458e+09  2.76e-02 7.45e-09  1.25e+01    52s
  77   2.80913728e+09  2.82245652e+09  2.62e-02 6.52e-09  1.15e+01    52s
  78   2.80988795e+09  2.82229605e+09  2.37e-02 6.05e-09  1.07e+01    53s
  79   2.81043570e+09  2.82193590e+09  2.26e-02 7.45e-09  9.96e+00    53s
  80   2.81067402e+09  2.82179885e+09  2.22e-02 9.31e-09  9.63e+00    53s
  81   2.81154827e+09  2.82149985e+09  2.02e-02 8.38e-09  8.61e+00    54s
  82   2.81196785e+09  2.82117323e+09  1.87e-02 7.92e-09  7.97e+00    54s
  83   2.81254326e+09  2.82089948e+09  1.70e-02 6.98e-09  7.23e+00    54s
  84   2.81311790e+09  2.82073127e+09  1.55e-02 7.92e-09  6.59e+00    54s
  85   2.81370948e+09  2.82058007e+09  1.41e-02 6.52e-09  5.94e+00    55s
  86   2.81445200e+09  2.82033702e+09  1.20e-02 7.92e-09  5.09e+00    55s
  87   2.81488371e+09  2.82024709e+09  1.08e-02 8.38e-09  4.64e+00    55s
  88   2.81528973e+09  2.81995508e+09  9.57e-03 7.45e-09  4.03e+00    56s
  89   2.81556954e+09  2.81981217e+09  8.65e-03 7.45e-09  3.67e+00    56s
  90   2.81595396e+09  2.81959094e+09  7.42e-03 5.12e-09  3.14e+00    56s
  91   2.81628936e+09  2.81933235e+09  6.34e-03 5.12e-09  2.63e+00    57s
  92   2.81644119e+09  2.81927371e+09  5.87e-03 6.05e-09  2.45e+00    57s
  93   2.81666845e+09  2.81913635e+09  5.16e-03 7.45e-09  2.13e+00    57s
  94   2.81690690e+09  2.81902856e+09  4.38e-03 6.98e-09  1.83e+00    58s
  95   2.81724165e+09  2.81894335e+09  3.30e-03 7.92e-09  1.47e+00    58s
  96   2.81744516e+09  2.81886923e+09  2.67e-03 7.45e-09  1.23e+00    58s
  97   2.81764499e+09  2.81877773e+09  2.10e-03 5.59e-09  9.78e-01    59s
  98   2.81786551e+09  2.81859543e+09  1.42e-03 3.73e-09  6.30e-01    59s
  99   2.81800920e+09  2.81846895e+09  9.96e-04 3.73e-09  3.98e-01    59s
 100   2.81814165e+09  2.81843021e+09  5.96e-04 2.79e-09  2.49e-01    59s
 101   2.81818154e+09  2.81839832e+09  4.75e-04 4.19e-09  1.88e-01    60s
 102   2.81829408e+09  2.81837112e+09  1.40e-04 4.66e-09  6.65e-02    60s
 103   2.81833171e+09  2.81835331e+09  3.39e-05 3.26e-09  1.86e-02    60s
 104   2.81834060e+09  2.81834705e+09  9.40e-06 3.26e-09  5.56e-03    60s
 105   2.81834294e+09  2.81834490e+09  3.28e-06 5.12e-09  1.69e-03    61s
 106   2.81834423e+09  2.81834438e+09  1.04e-07 3.73e-09  1.29e-04    61s
 107   2.81834428e+09  2.81834429e+09  9.54e-09 6.52e-09  1.54e-06    61s
 108   2.81834429e+09  2.81834429e+09  2.82e-09 5.59e-09  1.11e-10    61s

Barrier solved model in 108 iterations and 61.24 seconds (53.55 work units)
Optimal objective 2.81834429e+09


Root crossover log...

   19979 DPushes remaining with DInf 0.0000000e+00                61s
       0 DPushes remaining with DInf 0.0000000e+00                62s

     635 PPushes remaining with PInf 0.0000000e+00                62s
       1 PPushes remaining with PInf 6.7851773e+01                62s

  Push phase complete: Pinf 6.7851773e+01, Dinf 6.7036038e+05     62s


Root simplex log...

Iteration    Objective       Primal Inf.    Dual Inf.      Time
   16498    2.8183443e+09   0.000000e+00   6.703674e+05     62s
   16567    2.8183443e+09   0.000000e+00   0.000000e+00     63s
Concurrent spin time: 0.00s

Solved with barrier
   16597    2.8183443e+09   0.000000e+00   0.000000e+00     63s
Extra simplex iterations after uncrush: 30

Root relaxation: objective 2.818344e+09, 16597 iterations, 36.64 seconds (24.32 work units)

    Nodes    |    Current Node    |     Objective Bounds      |     Work
 Expl Unexpl |  Obj  Depth IntInf | Incumbent    BestBd   Gap | It/Node Time

     0     0 2.8183e+09    0  247          - 2.8183e+09      -     -   65s
Another try with MIP start
H    0     0                    2.793422e+09 2.8183e+09  0.89%     -  100s

Explored 1 nodes (26511 simplex iterations) in 100.99 seconds (91.11 work units)
Thread count was 20 (of 40 available processors)

Solution count 2: 2.79342e+09 2.79342e+09 

Optimal solution found (tolerance 1.00e-02)
Best objective 2.793421536276e+09, best bound 2.818344285512e+09, gap 0.8922%
Gurobi Optimizer version 10.0.1 build v10.0.1rc0 (linux64)

CPU model: Intel(R) Xeon(R) Gold 5115 CPU @ 2.40GHz, instruction set [SSE2|AVX|AVX2|AVX512]
Thread count: 20 physical cores, 40 logical processors, using up to 20 threads

Optimize a model with 127317 rows, 1632071 columns and 10076158 nonzeros
Model fingerprint: 0x36230142
Variable types: 13214 continuous, 1618857 integer (1618857 binary)
Coefficient statistics:
  Matrix range     [1e+00, 2e+05]
  Objective range  [4e+01, 3e+07]
  Bounds range     [9e-13, 3e+05]
  RHS range        [1e+00, 3e+06]

User MIP start did not produce a new incumbent solution
User MIP start violates constraint flow[RIV,NGBON,134] by 1.000000000
Processed MIP start in 1.23 seconds (0.52 work units)

Presolve removed 108016 rows and 1368593 columns
Presolve time: 1.03s

Explored 0 nodes (0 simplex iterations) in 4.75 seconds (2.70 work units)
Thread count was 1 (of 40 available processors)

Solution count 0

Model is infeasible or unbounded
Best objective -, best bound -, gap -
IIS computation: initial model status unknown, solving to determine model status
Presolve removed 108016 rows and 1368593 columns
Presolve time: 0.98s

Explored 0 nodes (0 simplex iterations) in 2.25 seconds (1.03 work units)
Thread count was 1 (of 40 available processors)

Solution count 0
No other solutions better than -1e+100

Model is infeasible
Best objective -, best bound -, gap -

IIS computed: 1 constraints, 192 bounds
IIS runtime: 2.35 seconds (1.03 work units)
